c File: flat175_3_0.col
c
c SOURCE: Joseph Culberson (joe@cs.ualberta.ca)
c DESCRIPTION: Quasi-random coloring problem
c              generated with flatness = 0
c                             probability = 0.041
c                             known coloring = 3
c                             random seed = 1069
c              Creation Date:  Wed Feb 24 10:55:23 1999
c Maximum degree = 8 Minimum degree = 0
c COLOR VERIFICATION: Using the permuted order
c under simple greedy yields the specified
c coloring number
c Color = 3 specified partitions = 3
c p edge 175 417
c cnf created by edge2cnf
p cnf 525 1951
-1 -2 0
-1 -3 0
-2 -3 0
1 2 3 0
-4 -5 0
-4 -6 0
-5 -6 0
4 5 6 0
-7 -8 0
-7 -9 0
-8 -9 0
7 8 9 0
-10 -11 0
-10 -12 0
-11 -12 0
10 11 12 0
-13 -14 0
-13 -15 0
-14 -15 0
13 14 15 0
-16 -17 0
-16 -18 0
-17 -18 0
16 17 18 0
-19 -20 0
-19 -21 0
-20 -21 0
19 20 21 0
-22 -23 0
-22 -24 0
-23 -24 0
22 23 24 0
-25 -26 0
-25 -27 0
-26 -27 0
25 26 27 0
-28 -29 0
-28 -30 0
-29 -30 0
28 29 30 0
-31 -32 0
-31 -33 0
-32 -33 0
31 32 33 0
-34 -35 0
-34 -36 0
-35 -36 0
34 35 36 0
-37 -38 0
-37 -39 0
-38 -39 0
37 38 39 0
-40 -41 0
-40 -42 0
-41 -42 0
40 41 42 0
-43 -44 0
-43 -45 0
-44 -45 0
43 44 45 0
-46 -47 0
-46 -48 0
-47 -48 0
46 47 48 0
-49 -50 0
-49 -51 0
-50 -51 0
49 50 51 0
-52 -53 0
-52 -54 0
-53 -54 0
52 53 54 0
-55 -56 0
-55 -57 0
-56 -57 0
55 56 57 0
-58 -59 0
-58 -60 0
-59 -60 0
58 59 60 0
-61 -62 0
-61 -63 0
-62 -63 0
61 62 63 0
-64 -65 0
-64 -66 0
-65 -66 0
64 65 66 0
-67 -68 0
-67 -69 0
-68 -69 0
67 68 69 0
-70 -71 0
-70 -72 0
-71 -72 0
70 71 72 0
-73 -74 0
-73 -75 0
-74 -75 0
73 74 75 0
-76 -77 0
-76 -78 0
-77 -78 0
76 77 78 0
-79 -80 0
-79 -81 0
-80 -81 0
79 80 81 0
-82 -83 0
-82 -84 0
-83 -84 0
82 83 84 0
-85 -86 0
-85 -87 0
-86 -87 0
85 86 87 0
-88 -89 0
-88 -90 0
-89 -90 0
88 89 90 0
-91 -92 0
-91 -93 0
-92 -93 0
91 92 93 0
-94 -95 0
-94 -96 0
-95 -96 0
94 95 96 0
-97 -98 0
-97 -99 0
-98 -99 0
97 98 99 0
-100 -101 0
-100 -102 0
-101 -102 0
100 101 102 0
-103 -104 0
-103 -105 0
-104 -105 0
103 104 105 0
-106 -107 0
-106 -108 0
-107 -108 0
106 107 108 0
-109 -110 0
-109 -111 0
-110 -111 0
109 110 111 0
-112 -113 0
-112 -114 0
-113 -114 0
112 113 114 0
-115 -116 0
-115 -117 0
-116 -117 0
115 116 117 0
-118 -119 0
-118 -120 0
-119 -120 0
118 119 120 0
-121 -122 0
-121 -123 0
-122 -123 0
121 122 123 0
-124 -125 0
-124 -126 0
-125 -126 0
124 125 126 0
-127 -128 0
-127 -129 0
-128 -129 0
127 128 129 0
-130 -131 0
-130 -132 0
-131 -132 0
130 131 132 0
-133 -134 0
-133 -135 0
-134 -135 0
133 134 135 0
-136 -137 0
-136 -138 0
-137 -138 0
136 137 138 0
-139 -140 0
-139 -141 0
-140 -141 0
139 140 141 0
-142 -143 0
-142 -144 0
-143 -144 0
142 143 144 0
-145 -146 0
-145 -147 0
-146 -147 0
145 146 147 0
-148 -149 0
-148 -150 0
-149 -150 0
148 149 150 0
-151 -152 0
-151 -153 0
-152 -153 0
151 152 153 0
-154 -155 0
-154 -156 0
-155 -156 0
154 155 156 0
-157 -158 0
-157 -159 0
-158 -159 0
157 158 159 0
-160 -161 0
-160 -162 0
-161 -162 0
160 161 162 0
-163 -164 0
-163 -165 0
-164 -165 0
163 164 165 0
-166 -167 0
-166 -168 0
-167 -168 0
166 167 168 0
-169 -170 0
-169 -171 0
-170 -171 0
169 170 171 0
-172 -173 0
-172 -174 0
-173 -174 0
172 173 174 0
-175 -176 0
-175 -177 0
-176 -177 0
175 176 177 0
-178 -179 0
-178 -180 0
-179 -180 0
178 179 180 0
-181 -182 0
-181 -183 0
-182 -183 0
181 182 183 0
-184 -185 0
-184 -186 0
-185 -186 0
184 185 186 0
-187 -188 0
-187 -189 0
-188 -189 0
187 188 189 0
-190 -191 0
-190 -192 0
-191 -192 0
190 191 192 0
-193 -194 0
-193 -195 0
-194 -195 0
193 194 195 0
-196 -197 0
-196 -198 0
-197 -198 0
196 197 198 0
-199 -200 0
-199 -201 0
-200 -201 0
199 200 201 0
-202 -203 0
-202 -204 0
-203 -204 0
202 203 204 0
-205 -206 0
-205 -207 0
-206 -207 0
205 206 207 0
-208 -209 0
-208 -210 0
-209 -210 0
208 209 210 0
-211 -212 0
-211 -213 0
-212 -213 0
211 212 213 0
-214 -215 0
-214 -216 0
-215 -216 0
214 215 216 0
-217 -218 0
-217 -219 0
-218 -219 0
217 218 219 0
-220 -221 0
-220 -222 0
-221 -222 0
220 221 222 0
-223 -224 0
-223 -225 0
-224 -225 0
223 224 225 0
-226 -227 0
-226 -228 0
-227 -228 0
226 227 228 0
-229 -230 0
-229 -231 0
-230 -231 0
229 230 231 0
-232 -233 0
-232 -234 0
-233 -234 0
232 233 234 0
-235 -236 0
-235 -237 0
-236 -237 0
235 236 237 0
-238 -239 0
-238 -240 0
-239 -240 0
238 239 240 0
-241 -242 0
-241 -243 0
-242 -243 0
241 242 243 0
-244 -245 0
-244 -246 0
-245 -246 0
244 245 246 0
-247 -248 0
-247 -249 0
-248 -249 0
247 248 249 0
-250 -251 0
-250 -252 0
-251 -252 0
250 251 252 0
-253 -254 0
-253 -255 0
-254 -255 0
253 254 255 0
-256 -257 0
-256 -258 0
-257 -258 0
256 257 258 0
-259 -260 0
-259 -261 0
-260 -261 0
259 260 261 0
-262 -263 0
-262 -264 0
-263 -264 0
262 263 264 0
-265 -266 0
-265 -267 0
-266 -267 0
265 266 267 0
-268 -269 0
-268 -270 0
-269 -270 0
268 269 270 0
-271 -272 0
-271 -273 0
-272 -273 0
271 272 273 0
-274 -275 0
-274 -276 0
-275 -276 0
274 275 276 0
-277 -278 0
-277 -279 0
-278 -279 0
277 278 279 0
-280 -281 0
-280 -282 0
-281 -282 0
280 281 282 0
-283 -284 0
-283 -285 0
-284 -285 0
283 284 285 0
-286 -287 0
-286 -288 0
-287 -288 0
286 287 288 0
-289 -290 0
-289 -291 0
-290 -291 0
289 290 291 0
-292 -293 0
-292 -294 0
-293 -294 0
292 293 294 0
-295 -296 0
-295 -297 0
-296 -297 0
295 296 297 0
-298 -299 0
-298 -300 0
-299 -300 0
298 299 300 0
-301 -302 0
-301 -303 0
-302 -303 0
301 302 303 0
-304 -305 0
-304 -306 0
-305 -306 0
304 305 306 0
-307 -308 0
-307 -309 0
-308 -309 0
307 308 309 0
-310 -311 0
-310 -312 0
-311 -312 0
310 311 312 0
-313 -314 0
-313 -315 0
-314 -315 0
313 314 315 0
-316 -317 0
-316 -318 0
-317 -318 0
316 317 318 0
-319 -320 0
-319 -321 0
-320 -321 0
319 320 321 0
-322 -323 0
-322 -324 0
-323 -324 0
322 323 324 0
-325 -326 0
-325 -327 0
-326 -327 0
325 326 327 0
-328 -329 0
-328 -330 0
-329 -330 0
328 329 330 0
-331 -332 0
-331 -333 0
-332 -333 0
331 332 333 0
-334 -335 0
-334 -336 0
-335 -336 0
334 335 336 0
-337 -338 0
-337 -339 0
-338 -339 0
337 338 339 0
-340 -341 0
-340 -342 0
-341 -342 0
340 341 342 0
-343 -344 0
-343 -345 0
-344 -345 0
343 344 345 0
-346 -347 0
-346 -348 0
-347 -348 0
346 347 348 0
-349 -350 0
-349 -351 0
-350 -351 0
349 350 351 0
-352 -353 0
-352 -354 0
-353 -354 0
352 353 354 0
-355 -356 0
-355 -357 0
-356 -357 0
355 356 357 0
-358 -359 0
-358 -360 0
-359 -360 0
358 359 360 0
-361 -362 0
-361 -363 0
-362 -363 0
361 362 363 0
-364 -365 0
-364 -366 0
-365 -366 0
364 365 366 0
-367 -368 0
-367 -369 0
-368 -369 0
367 368 369 0
-370 -371 0
-370 -372 0
-371 -372 0
370 371 372 0
-373 -374 0
-373 -375 0
-374 -375 0
373 374 375 0
-376 -377 0
-376 -378 0
-377 -378 0
376 377 378 0
-379 -380 0
-379 -381 0
-380 -381 0
379 380 381 0
-382 -383 0
-382 -384 0
-383 -384 0
382 383 384 0
-385 -386 0
-385 -387 0
-386 -387 0
385 386 387 0
-388 -389 0
-388 -390 0
-389 -390 0
388 389 390 0
-391 -392 0
-391 -393 0
-392 -393 0
391 392 393 0
-394 -395 0
-394 -396 0
-395 -396 0
394 395 396 0
-397 -398 0
-397 -399 0
-398 -399 0
397 398 399 0
-400 -401 0
-400 -402 0
-401 -402 0
400 401 402 0
-403 -404 0
-403 -405 0
-404 -405 0
403 404 405 0
-406 -407 0
-406 -408 0
-407 -408 0
406 407 408 0
-409 -410 0
-409 -411 0
-410 -411 0
409 410 411 0
-412 -413 0
-412 -414 0
-413 -414 0
412 413 414 0
-415 -416 0
-415 -417 0
-416 -417 0
415 416 417 0
-418 -419 0
-418 -420 0
-419 -420 0
418 419 420 0
-421 -422 0
-421 -423 0
-422 -423 0
421 422 423 0
-424 -425 0
-424 -426 0
-425 -426 0
424 425 426 0
-427 -428 0
-427 -429 0
-428 -429 0
427 428 429 0
-430 -431 0
-430 -432 0
-431 -432 0
430 431 432 0
-433 -434 0
-433 -435 0
-434 -435 0
433 434 435 0
-436 -437 0
-436 -438 0
-437 -438 0
436 437 438 0
-439 -440 0
-439 -441 0
-440 -441 0
439 440 441 0
-442 -443 0
-442 -444 0
-443 -444 0
442 443 444 0
-445 -446 0
-445 -447 0
-446 -447 0
445 446 447 0
-448 -449 0
-448 -450 0
-449 -450 0
448 449 450 0
-451 -452 0
-451 -453 0
-452 -453 0
451 452 453 0
-454 -455 0
-454 -456 0
-455 -456 0
454 455 456 0
-457 -458 0
-457 -459 0
-458 -459 0
457 458 459 0
-460 -461 0
-460 -462 0
-461 -462 0
460 461 462 0
-463 -464 0
-463 -465 0
-464 -465 0
463 464 465 0
-466 -467 0
-466 -468 0
-467 -468 0
466 467 468 0
-469 -470 0
-469 -471 0
-470 -471 0
469 470 471 0
-472 -473 0
-472 -474 0
-473 -474 0
472 473 474 0
-475 -476 0
-475 -477 0
-476 -477 0
475 476 477 0
-478 -479 0
-478 -480 0
-479 -480 0
478 479 480 0
-481 -482 0
-481 -483 0
-482 -483 0
481 482 483 0
-484 -485 0
-484 -486 0
-485 -486 0
484 485 486 0
-487 -488 0
-487 -489 0
-488 -489 0
487 488 489 0
-490 -491 0
-490 -492 0
-491 -492 0
490 491 492 0
-493 -494 0
-493 -495 0
-494 -495 0
493 494 495 0
-496 -497 0
-496 -498 0
-497 -498 0
496 497 498 0
-499 -500 0
-499 -501 0
-500 -501 0
499 500 501 0
-502 -503 0
-502 -504 0
-503 -504 0
502 503 504 0
-505 -506 0
-505 -507 0
-506 -507 0
505 506 507 0
-508 -509 0
-508 -510 0
-509 -510 0
508 509 510 0
-511 -512 0
-511 -513 0
-512 -513 0
511 512 513 0
-514 -515 0
-514 -516 0
-515 -516 0
514 515 516 0
-517 -518 0
-517 -519 0
-518 -519 0
517 518 519 0
-520 -521 0
-520 -522 0
-521 -522 0
520 521 522 0
-523 -524 0
-523 -525 0
-524 -525 0
523 524 525 0
-19 -1 0
-20 -2 0
-21 -3 0
-121 -1 0
-122 -2 0
-123 -3 0
-325 -1 0
-326 -2 0
-327 -3 0
-388 -1 0
-389 -2 0
-390 -3 0
-25 -4 0
-26 -5 0
-27 -6 0
-67 -4 0
-68 -5 0
-69 -6 0
-82 -4 0
-83 -5 0
-84 -6 0
-103 -4 0
-104 -5 0
-105 -6 0
-196 -4 0
-197 -5 0
-198 -6 0
-13 -7 0
-14 -8 0
-15 -9 0
-40 -7 0
-41 -8 0
-42 -9 0
-175 -7 0
-176 -8 0
-177 -9 0
-220 -7 0
-221 -8 0
-222 -9 0
-256 -7 0
-257 -8 0
-258 -9 0
-310 -7 0
-311 -8 0
-312 -9 0
-415 -7 0
-416 -8 0
-417 -9 0
-202 -10 0
-203 -11 0
-204 -12 0
-391 -10 0
-392 -11 0
-393 -12 0
-28 -13 0
-29 -14 0
-30 -15 0
-64 -13 0
-65 -14 0
-66 -15 0
-196 -13 0
-197 -14 0
-198 -15 0
-295 -13 0
-296 -14 0
-297 -15 0
-349 -13 0
-350 -14 0
-351 -15 0
-118 -16 0
-119 -17 0
-120 -18 0
-349 -16 0
-350 -17 0
-351 -18 0
-388 -16 0
-389 -17 0
-390 -18 0
-268 -19 0
-269 -20 0
-270 -21 0
-301 -19 0
-302 -20 0
-303 -21 0
-322 -19 0
-323 -20 0
-324 -21 0
-340 -19 0
-341 -20 0
-342 -21 0
-373 -19 0
-374 -20 0
-375 -21 0
-46 -22 0
-47 -23 0
-48 -24 0
-70 -22 0
-71 -23 0
-72 -24 0
-109 -22 0
-110 -23 0
-111 -24 0
-196 -22 0
-197 -23 0
-198 -24 0
-217 -22 0
-218 -23 0
-219 -24 0
-103 -25 0
-104 -26 0
-105 -27 0
-301 -25 0
-302 -26 0
-303 -27 0
-310 -25 0
-311 -26 0
-312 -27 0
-388 -25 0
-389 -26 0
-390 -27 0
-448 -25 0
-449 -26 0
-450 -27 0
-106 -28 0
-107 -29 0
-108 -30 0
-358 -28 0
-359 -29 0
-360 -30 0
-394 -28 0
-395 -29 0
-396 -30 0
-457 -28 0
-458 -29 0
-459 -30 0
-52 -31 0
-53 -32 0
-54 -33 0
-70 -31 0
-71 -32 0
-72 -33 0
-85 -31 0
-86 -32 0
-87 -33 0
-241 -31 0
-242 -32 0
-243 -33 0
-79 -34 0
-80 -35 0
-81 -36 0
-316 -34 0
-317 -35 0
-318 -36 0
-412 -34 0
-413 -35 0
-414 -36 0
-64 -37 0
-65 -38 0
-66 -39 0
-115 -37 0
-116 -38 0
-117 -39 0
-352 -37 0
-353 -38 0
-354 -39 0
-379 -37 0
-380 -38 0
-381 -39 0
-433 -37 0
-434 -38 0
-435 -39 0
-121 -40 0
-122 -41 0
-123 -42 0
-160 -40 0
-161 -41 0
-162 -42 0
-169 -40 0
-170 -41 0
-171 -42 0
-244 -40 0
-245 -41 0
-246 -42 0
-280 -40 0
-281 -41 0
-282 -42 0
-337 -40 0
-338 -41 0
-339 -42 0
-340 -40 0
-341 -41 0
-342 -42 0
-46 -43 0
-47 -44 0
-48 -45 0
-106 -46 0
-107 -47 0
-108 -48 0
-136 -49 0
-137 -50 0
-138 -51 0
-193 -49 0
-194 -50 0
-195 -51 0
-286 -49 0
-287 -50 0
-288 -51 0
-331 -49 0
-332 -50 0
-333 -51 0
-211 -52 0
-212 -53 0
-213 -54 0
-253 -52 0
-254 -53 0
-255 -54 0
-307 -52 0
-308 -53 0
-309 -54 0
-331 -52 0
-332 -53 0
-333 -54 0
-376 -52 0
-377 -53 0
-378 -54 0
-403 -52 0
-404 -53 0
-405 -54 0
-505 -52 0
-506 -53 0
-507 -54 0
-394 -55 0
-395 -56 0
-396 -57 0
-400 -55 0
-401 -56 0
-402 -57 0
-409 -55 0
-410 -56 0
-411 -57 0
-451 -55 0
-452 -56 0
-453 -57 0
-136 -58 0
-137 -59 0
-138 -60 0
-175 -58 0
-176 -59 0
-177 -60 0
-250 -58 0
-251 -59 0
-252 -60 0
-328 -58 0
-329 -59 0
-330 -60 0
-478 -61 0
-479 -62 0
-480 -63 0
-169 -64 0
-170 -65 0
-171 -66 0
-190 -64 0
-191 -65 0
-192 -66 0
-202 -64 0
-203 -65 0
-204 -66 0
-244 -64 0
-245 -65 0
-246 -66 0
-94 -67 0
-95 -68 0
-96 -69 0
-211 -67 0
-212 -68 0
-213 -69 0
-220 -67 0
-221 -68 0
-222 -69 0
-406 -67 0
-407 -68 0
-408 -69 0
-457 -67 0
-458 -68 0
-459 -69 0
-472 -67 0
-473 -68 0
-474 -69 0
-166 -70 0
-167 -71 0
-168 -72 0
-286 -70 0
-287 -71 0
-288 -72 0
-397 -70 0
-398 -71 0
-399 -72 0
-463 -70 0
-464 -71 0
-465 -72 0
-328 -73 0
-329 -74 0
-330 -75 0
-124 -76 0
-125 -77 0
-126 -78 0
-484 -76 0
-485 -77 0
-486 -78 0
-97 -79 0
-98 -80 0
-99 -81 0
-181 -79 0
-182 -80 0
-183 -81 0
-184 -79 0
-185 -80 0
-186 -81 0
-244 -79 0
-245 -80 0
-246 -81 0
-334 -79 0
-335 -80 0
-336 -81 0
-376 -79 0
-377 -80 0
-378 -81 0
-175 -82 0
-176 -83 0
-177 -84 0
-283 -82 0
-284 -83 0
-285 -84 0
-310 -82 0
-311 -83 0
-312 -84 0
-190 -85 0
-191 -86 0
-192 -87 0
-256 -85 0
-257 -86 0
-258 -87 0
-121 -88 0
-122 -89 0
-123 -90 0
-142 -88 0
-143 -89 0
-144 -90 0
-187 -88 0
-188 -89 0
-189 -90 0
-376 -88 0
-377 -89 0
-378 -90 0
-385 -88 0
-386 -89 0
-387 -90 0
-97 -91 0
-98 -92 0
-99 -93 0
-139 -91 0
-140 -92 0
-141 -93 0
-256 -91 0
-257 -92 0
-258 -93 0
-337 -91 0
-338 -92 0
-339 -93 0
-376 -91 0
-377 -92 0
-378 -93 0
-130 -94 0
-131 -95 0
-132 -96 0
-151 -94 0
-152 -95 0
-153 -96 0
-184 -94 0
-185 -95 0
-186 -96 0
-265 -94 0
-266 -95 0
-267 -96 0
-310 -94 0
-311 -95 0
-312 -96 0
-448 -94 0
-449 -95 0
-450 -96 0
-259 -97 0
-260 -98 0
-261 -99 0
-283 -97 0
-284 -98 0
-285 -99 0
-346 -97 0
-347 -98 0
-348 -99 0
-286 -100 0
-287 -101 0
-288 -102 0
-244 -103 0
-245 -104 0
-246 -105 0
-250 -103 0
-251 -104 0
-252 -105 0
-256 -103 0
-257 -104 0
-258 -105 0
-379 -103 0
-380 -104 0
-381 -105 0
-166 -106 0
-167 -107 0
-168 -108 0
-325 -106 0
-326 -107 0
-327 -108 0
-331 -106 0
-332 -107 0
-333 -108 0
-367 -106 0
-368 -107 0
-369 -108 0
-421 -106 0
-422 -107 0
-423 -108 0
-424 -106 0
-425 -107 0
-426 -108 0
-151 -109 0
-152 -110 0
-153 -111 0
-244 -109 0
-245 -110 0
-246 -111 0
-280 -109 0
-281 -110 0
-282 -111 0
-484 -109 0
-485 -110 0
-486 -111 0
-154 -112 0
-155 -113 0
-156 -114 0
-163 -112 0
-164 -113 0
-165 -114 0
-235 -112 0
-236 -113 0
-237 -114 0
-295 -112 0
-296 -113 0
-297 -114 0
-448 -112 0
-449 -113 0
-450 -114 0
-190 -118 0
-191 -119 0
-192 -120 0
-250 -118 0
-251 -119 0
-252 -120 0
-280 -118 0
-281 -119 0
-282 -120 0
-313 -118 0
-314 -119 0
-315 -120 0
-343 -121 0
-344 -122 0
-345 -123 0
-370 -121 0
-371 -122 0
-372 -123 0
-451 -121 0
-452 -122 0
-453 -123 0
-487 -121 0
-488 -122 0
-489 -123 0
-172 -124 0
-173 -125 0
-174 -126 0
-277 -124 0
-278 -125 0
-279 -126 0
-490 -124 0
-491 -125 0
-492 -126 0
-142 -127 0
-143 -128 0
-144 -129 0
-223 -127 0
-224 -128 0
-225 -129 0
-433 -127 0
-434 -128 0
-435 -129 0
-469 -127 0
-470 -128 0
-471 -129 0
-502 -127 0
-503 -128 0
-504 -129 0
-268 -130 0
-269 -131 0
-270 -132 0
-274 -130 0
-275 -131 0
-276 -132 0
-283 -130 0
-284 -131 0
-285 -132 0
-289 -130 0
-290 -131 0
-291 -132 0
-349 -130 0
-350 -131 0
-351 -132 0
-382 -130 0
-383 -131 0
-384 -132 0
-433 -130 0
-434 -131 0
-435 -132 0
-142 -133 0
-143 -134 0
-144 -135 0
-184 -133 0
-185 -134 0
-186 -135 0
-340 -133 0
-341 -134 0
-342 -135 0
-391 -133 0
-392 -134 0
-393 -135 0
-451 -133 0
-452 -134 0
-453 -135 0
-352 -136 0
-353 -137 0
-354 -138 0
-388 -136 0
-389 -137 0
-390 -138 0
-157 -139 0
-158 -140 0
-159 -141 0
-304 -139 0
-305 -140 0
-306 -141 0
-412 -139 0
-413 -140 0
-414 -141 0
-523 -139 0
-524 -140 0
-525 -141 0
-166 -142 0
-167 -143 0
-168 -144 0
-388 -142 0
-389 -143 0
-390 -144 0
-163 -145 0
-164 -146 0
-165 -147 0
-352 -145 0
-353 -146 0
-354 -147 0
-223 -148 0
-224 -149 0
-225 -150 0
-196 -151 0
-197 -152 0
-198 -153 0
-358 -151 0
-359 -152 0
-360 -153 0
-178 -154 0
-179 -155 0
-180 -156 0
-181 -154 0
-182 -155 0
-183 -156 0
-211 -154 0
-212 -155 0
-213 -156 0
-394 -154 0
-395 -155 0
-396 -156 0
-466 -154 0
-467 -155 0
-468 -156 0
-322 -157 0
-323 -158 0
-324 -159 0
-364 -157 0
-365 -158 0
-366 -159 0
-424 -157 0
-425 -158 0
-426 -159 0
-238 -160 0
-239 -161 0
-240 -162 0
-355 -160 0
-356 -161 0
-357 -162 0
-382 -160 0
-383 -161 0
-384 -162 0
-400 -160 0
-401 -161 0
-402 -162 0
-247 -163 0
-248 -164 0
-249 -165 0
-517 -166 0
-518 -167 0
-519 -168 0
-280 -169 0
-281 -170 0
-282 -171 0
-319 -169 0
-320 -170 0
-321 -171 0
-364 -169 0
-365 -170 0
-366 -171 0
-499 -172 0
-500 -173 0
-501 -174 0
-514 -172 0
-515 -173 0
-516 -174 0
-217 -175 0
-218 -176 0
-219 -177 0
-445 -175 0
-446 -176 0
-447 -177 0
-250 -178 0
-251 -179 0
-252 -180 0
-394 -178 0
-395 -179 0
-396 -180 0
-439 -178 0
-440 -179 0
-441 -180 0
-457 -178 0
-458 -179 0
-459 -180 0
-481 -178 0
-482 -179 0
-483 -180 0
-256 -181 0
-257 -182 0
-258 -183 0
-283 -181 0
-284 -182 0
-285 -183 0
-301 -181 0
-302 -182 0
-303 -183 0
-325 -184 0
-326 -185 0
-327 -186 0
-370 -184 0
-371 -185 0
-372 -186 0
-436 -184 0
-437 -185 0
-438 -186 0
-241 -187 0
-242 -188 0
-243 -189 0
-259 -187 0
-260 -188 0
-261 -189 0
-484 -187 0
-485 -188 0
-486 -189 0
-238 -190 0
-239 -191 0
-240 -192 0
-313 -190 0
-314 -191 0
-315 -192 0
-436 -190 0
-437 -191 0
-438 -192 0
-514 -190 0
-515 -191 0
-516 -192 0
-208 -193 0
-209 -194 0
-210 -195 0
-229 -193 0
-230 -194 0
-231 -195 0
-322 -193 0
-323 -194 0
-324 -195 0
-391 -193 0
-392 -194 0
-393 -195 0
-508 -193 0
-509 -194 0
-510 -195 0
-271 -196 0
-272 -197 0
-273 -198 0
-316 -196 0
-317 -197 0
-318 -198 0
-232 -199 0
-233 -200 0
-234 -201 0
-400 -199 0
-401 -200 0
-402 -201 0
-493 -199 0
-494 -200 0
-495 -201 0
-502 -199 0
-503 -200 0
-504 -201 0
-205 -202 0
-206 -203 0
-207 -204 0
-334 -202 0
-335 -203 0
-336 -204 0
-370 -202 0
-371 -203 0
-372 -204 0
-274 -205 0
-275 -206 0
-276 -207 0
-517 -205 0
-518 -206 0
-519 -207 0
-463 -208 0
-464 -209 0
-465 -210 0
-502 -208 0
-503 -209 0
-504 -210 0
-520 -208 0
-521 -209 0
-522 -210 0
-214 -211 0
-215 -212 0
-216 -213 0
-226 -211 0
-227 -212 0
-228 -213 0
-418 -211 0
-419 -212 0
-420 -213 0
-451 -211 0
-452 -212 0
-453 -213 0
-484 -211 0
-485 -212 0
-486 -213 0
-238 -214 0
-239 -215 0
-240 -216 0
-271 -214 0
-272 -215 0
-273 -216 0
-298 -214 0
-299 -215 0
-300 -216 0
-325 -214 0
-326 -215 0
-327 -216 0
-493 -214 0
-494 -215 0
-495 -216 0
-511 -214 0
-512 -215 0
-513 -216 0
-319 -217 0
-320 -218 0
-321 -219 0
-337 -217 0
-338 -218 0
-339 -219 0
-481 -217 0
-482 -218 0
-483 -219 0
-499 -217 0
-500 -218 0
-501 -219 0
-274 -220 0
-275 -221 0
-276 -222 0
-421 -220 0
-422 -221 0
-423 -222 0
-436 -220 0
-437 -221 0
-438 -222 0
-487 -220 0
-488 -221 0
-489 -222 0
-259 -223 0
-260 -224 0
-261 -225 0
-460 -223 0
-461 -224 0
-462 -225 0
-340 -226 0
-341 -227 0
-342 -228 0
-367 -226 0
-368 -227 0
-369 -228 0
-487 -226 0
-488 -227 0
-489 -228 0
-490 -226 0
-491 -227 0
-492 -228 0
-505 -226 0
-506 -227 0
-507 -228 0
-364 -229 0
-365 -230 0
-366 -231 0
-445 -229 0
-446 -230 0
-447 -231 0
-469 -229 0
-470 -230 0
-471 -231 0
-523 -229 0
-524 -230 0
-525 -231 0
-235 -232 0
-236 -233 0
-237 -234 0
-298 -232 0
-299 -233 0
-300 -234 0
-442 -232 0
-443 -233 0
-444 -234 0
-322 -238 0
-323 -239 0
-324 -240 0
-523 -238 0
-524 -239 0
-525 -240 0
-244 -241 0
-245 -242 0
-246 -243 0
-346 -241 0
-347 -242 0
-348 -243 0
-403 -244 0
-404 -245 0
-405 -246 0
-415 -244 0
-416 -245 0
-417 -246 0
-427 -247 0
-428 -248 0
-429 -249 0
-517 -247 0
-518 -248 0
-519 -249 0
-310 -250 0
-311 -251 0
-312 -252 0
-355 -250 0
-356 -251 0
-357 -252 0
-370 -250 0
-371 -251 0
-372 -252 0
-439 -250 0
-440 -251 0
-441 -252 0
-301 -253 0
-302 -254 0
-303 -255 0
-307 -259 0
-308 -260 0
-309 -261 0
-382 -259 0
-383 -260 0
-384 -261 0
-499 -259 0
-500 -260 0
-501 -261 0
-265 -262 0
-266 -263 0
-267 -264 0
-271 -262 0
-272 -263 0
-273 -264 0
-325 -262 0
-326 -263 0
-327 -264 0
-313 -265 0
-314 -266 0
-315 -267 0
-463 -265 0
-464 -266 0
-465 -267 0
-481 -265 0
-482 -266 0
-483 -267 0
-523 -265 0
-524 -266 0
-525 -267 0
-289 -268 0
-290 -269 0
-291 -270 0
-319 -268 0
-320 -269 0
-321 -270 0
-352 -268 0
-353 -269 0
-354 -270 0
-385 -268 0
-386 -269 0
-387 -270 0
-406 -268 0
-407 -269 0
-408 -270 0
-460 -268 0
-461 -269 0
-462 -270 0
-469 -271 0
-470 -272 0
-471 -273 0
-292 -274 0
-293 -275 0
-294 -276 0
-346 -274 0
-347 -275 0
-348 -276 0
-514 -274 0
-515 -275 0
-516 -276 0
-520 -274 0
-521 -275 0
-522 -276 0
-322 -277 0
-323 -278 0
-324 -279 0
-415 -277 0
-416 -278 0
-417 -279 0
-490 -280 0
-491 -281 0
-492 -282 0
-334 -283 0
-335 -284 0
-336 -285 0
-310 -286 0
-311 -287 0
-312 -288 0
-424 -286 0
-425 -287 0
-426 -288 0
-463 -289 0
-464 -290 0
-465 -291 0
-499 -289 0
-500 -290 0
-501 -291 0
-379 -292 0
-380 -293 0
-381 -294 0
-400 -292 0
-401 -293 0
-402 -294 0
-331 -295 0
-332 -296 0
-333 -297 0
-466 -295 0
-467 -296 0
-468 -297 0
-511 -295 0
-512 -296 0
-513 -297 0
-310 -301 0
-311 -302 0
-312 -303 0
-421 -301 0
-422 -302 0
-423 -303 0
-502 -301 0
-503 -302 0
-504 -303 0
-325 -304 0
-326 -305 0
-327 -306 0
-385 -304 0
-386 -305 0
-387 -306 0
-400 -304 0
-401 -305 0
-402 -306 0
-508 -304 0
-509 -305 0
-510 -306 0
-514 -304 0
-515 -305 0
-516 -306 0
-475 -307 0
-476 -308 0
-477 -309 0
-472 -313 0
-473 -314 0
-474 -315 0
-343 -316 0
-344 -317 0
-345 -318 0
-433 -316 0
-434 -317 0
-435 -318 0
-481 -316 0
-482 -317 0
-483 -318 0
-523 -316 0
-524 -317 0
-525 -318 0
-451 -325 0
-452 -326 0
-453 -327 0
-349 -328 0
-350 -329 0
-351 -330 0
-379 -328 0
-380 -329 0
-381 -330 0
-463 -328 0
-464 -329 0
-465 -330 0
-520 -328 0
-521 -329 0
-522 -330 0
-370 -331 0
-371 -332 0
-372 -333 0
-469 -331 0
-470 -332 0
-471 -333 0
-487 -331 0
-488 -332 0
-489 -333 0
-502 -331 0
-503 -332 0
-504 -333 0
-358 -334 0
-359 -335 0
-360 -336 0
-388 -334 0
-389 -335 0
-390 -336 0
-427 -334 0
-428 -335 0
-429 -336 0
-475 -334 0
-476 -335 0
-477 -336 0
-493 -334 0
-494 -335 0
-495 -336 0
-355 -337 0
-356 -338 0
-357 -339 0
-358 -337 0
-359 -338 0
-360 -339 0
-478 -343 0
-479 -344 0
-480 -345 0
-406 -346 0
-407 -347 0
-408 -348 0
-427 -346 0
-428 -347 0
-429 -348 0
-436 -346 0
-437 -347 0
-438 -348 0
-514 -349 0
-515 -350 0
-516 -351 0
-355 -352 0
-356 -353 0
-357 -354 0
-433 -352 0
-434 -353 0
-435 -354 0
-466 -355 0
-467 -356 0
-468 -357 0
-499 -355 0
-500 -356 0
-501 -357 0
-406 -358 0
-407 -359 0
-408 -360 0
-454 -358 0
-455 -359 0
-456 -360 0
-466 -364 0
-467 -365 0
-468 -366 0
-511 -364 0
-512 -365 0
-513 -366 0
-370 -367 0
-371 -368 0
-372 -369 0
-505 -367 0
-506 -368 0
-507 -369 0
-520 -367 0
-521 -368 0
-522 -369 0
-511 -370 0
-512 -371 0
-513 -372 0
-394 -373 0
-395 -374 0
-396 -375 0
-388 -376 0
-389 -377 0
-390 -378 0
-445 -376 0
-446 -377 0
-447 -378 0
-469 -379 0
-470 -380 0
-471 -381 0
-406 -382 0
-407 -383 0
-408 -384 0
-397 -385 0
-398 -386 0
-399 -387 0
-502 -391 0
-503 -392 0
-504 -393 0
-409 -394 0
-410 -395 0
-411 -396 0
-484 -397 0
-485 -398 0
-486 -399 0
-433 -400 0
-434 -401 0
-435 -402 0
-421 -406 0
-422 -407 0
-423 -408 0
-436 -406 0
-437 -407 0
-438 -408 0
-415 -409 0
-416 -410 0
-417 -411 0
-514 -409 0
-515 -410 0
-516 -411 0
-514 -412 0
-515 -413 0
-516 -414 0
-451 -415 0
-452 -416 0
-453 -417 0
-505 -415 0
-506 -416 0
-507 -417 0
-424 -418 0
-425 -419 0
-426 -420 0
-430 -418 0
-431 -419 0
-432 -420 0
-445 -418 0
-446 -419 0
-447 -420 0
-508 -418 0
-509 -419 0
-510 -420 0
-502 -421 0
-503 -422 0
-504 -423 0
-445 -424 0
-446 -425 0
-447 -426 0
-499 -430 0
-500 -431 0
-501 -432 0
-499 -433 0
-500 -434 0
-501 -435 0
-457 -436 0
-458 -437 0
-459 -438 0
-475 -436 0
-476 -437 0
-477 -438 0
-451 -439 0
-452 -440 0
-453 -441 0
-514 -439 0
-515 -440 0
-516 -441 0
-487 -442 0
-488 -443 0
-489 -444 0
-463 -454 0
-464 -455 0
-465 -456 0
-478 -457 0
-479 -458 0
-480 -459 0
-496 -457 0
-497 -458 0
-498 -459 0
-520 -460 0
-521 -461 0
-522 -462 0
-496 -475 0
-497 -476 0
-498 -477 0
-493 -487 0
-494 -488 0
-495 -489 0
-499 -487 0
-500 -488 0
-501 -489 0
-508 -502 0
-509 -503 0
-510 -504 0
